# 38687
param n := 30;
param s := 1;
set E :=  (0,8) (1,7) (1,27) (2,19) (2,20) (2,22) (3,14) (3,19) (4,9) (5,8) (6,10) (6,24) (8,29) (9,21) (9,22) (9,23) (10,18) (11,15) (11,17) (11,25) (11,29) (12,18) (13,24) (14,22) (15,19) (15,24) (16,21) (18,29) (19,20) (21,22) (21,25) (21,26) (26,27) (28,29);
